
Gurobi 9.1.2 (linux64) logging started Tue Mar 29 22:14:29 2022

Changed value of parameter LogFile to abilene_v-CHINng.log
   Prev:   Default: 
Changed value of parameter MIPFocus to 1
   Prev: 0  Min: 0  Max: 3  Default: 0
Changed value of parameter TimeLimit to 600.0
   Prev: inf  Min: 0.0  Max: inf  Default: inf
Warning: variables 0 and 54 have the same name "X[ATLAM5,ATLAng]"
Warning: linear constraint 78 and linear constraint 79 have the same name "weight-constr-t5"
Warning: to let Gurobi read it back, use rlp format
Gurobi Optimizer version 9.1.2 build v9.1.2rc0 (linux64)
Thread count: 32 physical cores, 64 logical processors, using up to 32 threads
Optimize a model with 389 rows, 324 columns and 1086 nonzeros
Model fingerprint: 0xb347fa60
Variable types: 72 continuous, 252 integer (252 binary)
Coefficient statistics:
  Matrix range     [1e+00, 1e+06]
  Objective range  [2e-01, 2e-01]
  Bounds range     [1e+00, 5e+05]
  RHS range        [1e+00, 1e+06]
Presolve removed 60 rows and 66 columns
Presolve time: 0.01s
Presolved: 329 rows, 258 columns, 1434 nonzeros
Variable types: 66 continuous, 192 integer (192 binary)

Root relaxation: objective 1.200000e+01, 58 iterations, 0.00 seconds

    Nodes    |    Current Node    |     Objective Bounds      |     Work
 Expl Unexpl |  Obj  Depth IntInf | Incumbent    BestBd   Gap | It/Node Time

     0     0   12.00000    0   12          -   12.00000      -     -    0s
H    0     0                     130.9999999   12.00000  90.8%     -    0s
H    0     0                      68.0000000   12.00000  82.4%     -    0s
H    0     0                      33.5000000   12.00000  64.2%     -    0s
     0     0   12.00000    0   18   33.50000   12.00000  64.2%     -    0s
H    0     0                      26.0000000   12.00000  53.8%     -    0s
     0     0   12.00000    0   14   26.00000   12.00000  53.8%     -    0s
H    0     0                      24.0000000   12.00000  50.0%     -    0s
     0     0   12.00000    0    4   24.00000   12.00000  50.0%     -    0s
     0     0   12.00000    0    9   24.00000   12.00000  50.0%     -    0s
     0     0   12.00000    0    9   24.00000   12.00000  50.0%     -    0s
     0     0   12.00000    0    6   24.00000   12.00000  50.0%     -    0s
     0     2   12.00000    0    6   24.00000   12.00000  50.0%     -    0s
*  636   572              28      22.3333333   12.00000  46.3%   8.5    1s
* 4466  2600              34      21.8333384   12.00000  45.0%   6.5    2s
* 5425  2520              27      18.5000056   12.00000  35.1%   6.5    2s
* 5429  2520              26      18.5000034   12.00000  35.1%   6.5    2s
* 9164  3744              18      17.6666718   12.00000  32.1%   6.4    2s

Cutting planes:
  Learned: 32
  Gomory: 1
  Cover: 45
  Implied bound: 30
  Clique: 11
  MIR: 48
  StrongCG: 1
  Flow cover: 177
  GUB cover: 3
  Inf proof: 1
  RLT: 41
  Relax-and-lift: 35

Explored 10308 nodes (90177 simplex iterations) in 2.92 seconds
Thread count was 32 (of 64 available processors)

Solution count 10: 17.6667 18.5 18.5 ... 131
No other solutions better than 17.6667

Optimal solution found (tolerance 1.00e-04)
Best objective 1.766667016337e+01, best bound 1.766667016337e+01, gap 0.0000%
